Ti8 O16
1.0
11.772834 0.000000 -3.586978
0.000000 3.766937 0.000000
0.000000 0.000000 6.616213
Ti O
8 16
direct
0.099929 0.000000 0.710398 Ti
0.900071 0.000000 0.289602 Ti
0.599929 0.500000 0.710398 Ti
0.400071 0.500000 0.289602 Ti
0.195286 0.000000 0.283762 Ti
0.804714 0.000000 0.716238 Ti
0.695286 0.500000 0.283762 Ti
0.304714 0.500000 0.716238 Ti
0.058352 0.000000 0.369979 O
0.941648 0.000000 0.630021 O
0.558352 0.500000 0.369979 O
0.441648 0.500000 0.630021 O
0.132811 0.000000 0.004709 O
0.867189 0.000000 0.995291 O
0.632811 0.500000 0.004709 O
0.367189 0.500000 0.995291 O
0.138068 0.500000 0.706603 O
0.861932 0.500000 0.293397 O
0.638068 0.000000 0.706603 O
0.361932 0.000000 0.293397 O
0.236511 0.500000 0.347500 O
0.763489 0.500000 0.652500 O
0.736511 0.000000 0.347500 O
0.263489 0.000000 0.652500 O