Zn2 Cu4 Sn2 S8
1.0
5.463536 0.000000 0.000000
0.000000 5.463536 0.000000
0.000000 0.000000 10.904246
Zn Cu Sn S
2 4 2 8
direct
0.000000 0.500000 0.750000 Zn
0.500000 0.000000 0.250000 Zn
0.000000 0.000000 0.000000 Cu
0.500000 0.500000 0.500000 Cu
0.000000 0.500000 0.250000 Cu
0.500000 0.000000 0.750000 Cu
0.000000 0.000000 0.500000 Sn
0.500000 0.500000 0.000000 Sn
0.233664 0.757678 0.129153 S
0.757678 0.766336 0.870847 S
0.766336 0.242322 0.129153 S
0.242322 0.233664 0.870847 S
0.733664 0.257678 0.629153 S
0.257678 0.266336 0.370847 S
0.266336 0.742322 0.629153 S
0.742322 0.733664 0.370847 S