Ag8 P8 O24
1.0
6.552182 0.000000 -3.655516
0.000000 6.053561 0.000000
0.000000 0.000000 14.204122
Ag P O
8 8 24
direct
0.265254 0.588733 0.533501 Ag
0.734746 0.411267 0.466499 Ag
0.734746 0.088733 0.966499 Ag
0.265254 0.911267 0.033501 Ag
0.499083 0.660395 0.875660 Ag
0.500917 0.339605 0.124340 Ag
0.500917 0.160395 0.624340 Ag
0.499083 0.839605 0.375660 Ag
0.067341 0.113810 0.388722 P
0.932659 0.886190 0.611278 P
0.932659 0.613810 0.111278 P
0.067341 0.386190 0.888722 P
0.258955 0.180048 0.775247 P
0.741045 0.819952 0.224753 P
0.741045 0.680048 0.724753 P
0.258955 0.319952 0.275247 P
0.021521 0.199596 0.943303 O
0.978479 0.800404 0.056697 O
0.978479 0.699596 0.556697 O
0.021521 0.300404 0.443303 O
0.071329 0.201270 0.281469 O
0.928671 0.798730 0.718531 O
0.928671 0.701270 0.218531 O
0.071329 0.298730 0.781469 O
0.135126 0.037322 0.666667 O
0.864874 0.962678 0.333333 O
0.864874 0.537322 0.833333 O
0.135126 0.462678 0.166667 O
0.254623 0.526791 0.954431 O
0.745377 0.473209 0.045569 O
0.745377 0.026791 0.545569 O
0.254623 0.973209 0.454431 O
0.369915 0.030484 0.872383 O
0.630085 0.969516 0.127617 O
0.630085 0.530484 0.627617 O
0.369915 0.469516 0.372383 O
0.381831 0.153035 0.252411 O
0.618169 0.846965 0.747589 O
0.618169 0.653035 0.247589 O
0.381831 0.346965 0.752411 O