Cs4 Pb4 I12
1.0
10.811909 0.000000 0.000000
0.000000 4.878714 0.000000
0.000000 0.000000 18.213174
Cs Pb I
4 4 12
direct
0.081606 0.750000 0.827797 Cs
0.918394 0.250000 0.172203 Cs
0.418394 0.250000 0.327797 Cs
0.581606 0.750000 0.672203 Cs
0.161221 0.250000 0.560794 Pb
0.838779 0.750000 0.439206 Pb
0.338779 0.750000 0.060794 Pb
0.661221 0.250000 0.939206 Pb
0.028690 0.250000 0.388355 I
0.971310 0.750000 0.611645 I
0.471310 0.750000 0.888355 I
0.528690 0.250000 0.111645 I
0.163778 0.250000 0.999396 I
0.836222 0.750000 0.000604 I
0.336222 0.750000 0.499396 I
0.663778 0.250000 0.500604 I
0.202775 0.750000 0.211525 I
0.797225 0.250000 0.788475 I
0.297225 0.250000 0.711525 I
0.702775 0.750000 0.288475 I